c FILE /home/rafael/Documents/HappySet/MIHS/inputs/happygen/output/graph_d_regular_k3_p0.2_v50_20241127_082557.txt
c SOURCE This is a d-regular graph formed for the happy graph colouring problem.
c DESCRIPTION It was generated using the problem generator of Rhyd Lewis
c
c GRAPH STATS
c Seed                             = -1680444280
c Number of Nodes                  = 50
c Number of colours k              = 3
c Number of pre-assignments        = 10
c Degree of all vertices           = 6
c Density                          = 0.122449
c 
c The degrees of nodes 1 to 50, respectively, are as follows 
c [6, 6, 6, 6, 6, 6, 6, 6, 6, 6, 6, 6, 6, 6, 6, 6, 6, 6, 6, 6, 6, 6, 6, 6, 6, 6, 
c  6, 6, 6, 6, 6, 6, 6, 6, 6, 6, 6, 6, 6, 6, 6, 6, 6, 6, 6, 6, 6, 6, 6, 6] 
c  
p edge 50 150 3
e 1 3
e 1 4
e 1 11
e 1 13
e 1 27
e 1 41
e 2 18
e 2 31
e 2 32
e 2 35
e 2 39
e 2 42
e 3 7
e 3 14
e 3 17
e 3 20
e 3 41
e 4 5
e 4 9
e 4 11
e 4 13
e 4 19
e 5 16
e 5 20
e 5 26
e 5 43
e 5 46
e 6 8
e 6 12
e 6 15
e 6 19
e 6 46
e 6 50
e 7 20
e 7 28
e 7 33
e 7 40
e 7 48
e 8 11
e 8 25
e 8 35
e 8 43
e 8 49
e 9 24
e 9 29
e 9 31
e 9 34
e 9 36
e 10 14
e 10 31
e 10 35
e 10 38
e 10 43
e 10 47
e 11 22
e 11 24
e 11 33
e 12 27
e 12 30
e 12 36
e 12 37
e 12 44
e 13 15
e 13 35
e 13 40
e 13 41
e 14 20
e 14 21
e 14 25
e 14 36
e 15 18
e 15 19
e 15 21
e 15 46
e 16 17
e 16 25
e 16 28
e 16 33
e 16 48
e 17 26
e 17 27
e 17 39
e 17 47
e 18 21
e 18 45
e 18 47
e 18 48
e 19 22
e 19 24
e 19 42
e 20 41
e 20 50
e 21 23
e 21 29
e 21 45
e 22 24
e 22 36
e 22 44
e 22 47
e 23 28
e 23 33
e 23 37
e 23 38
e 23 49
e 24 42
e 24 49
e 25 31
e 25 32
e 25 50
e 26 34
e 26 40
e 26 47
e 26 49
e 27 28
e 27 33
e 27 39
e 28 29
e 28 37
e 29 30
e 29 34
e 29 38
e 30 32
e 30 42
e 30 45
e 30 46
e 31 32
e 31 50
e 32 44
e 32 45
e 33 41
e 34 36
e 34 45
e 34 48
e 35 43
e 35 49
e 36 44
e 37 43
e 37 44
e 37 49
e 38 40
e 38 41
e 38 44
e 39 42
e 39 47
e 39 50
e 40 45
e 40 46
e 42 48
e 43 46
e 48 50
n 4 1
n 16 2
n 22 2
n 27 3
n 29 3
n 31 2
n 43 2
n 44 2
n 45 1
n 46 2
